
 plane4Q   

 C O N T R O L   I N F O R M A T I O N

      NUMBER OF NODAL POINTS . . . . . . . . . . (NUMNP)  =         18 
      NUMBER OF ELEMENT GROUPS . . . . . . . . . (NUMEG)  =          1 
      NUMBER OF LOAD CASES . . . . . . . . . . . (NLCASE) =          1 
      SOLUTION MODE  . . . . . . . . . . . . . . (MODEX)  =          1 
         EQ.0, DATA CHECK 
         EQ.1, EXECUTION


 N O D A L   P O I N T   D A T A 

       NODE          BOUNDARY                         NODAL POINT
      NUMBER     CONDITION  CODES                     COORDINATES
                    X    Y    Z               X            Y            Z
         1          1    1    1              0.000        0.000        0.000
         2          0    0    1              0.200        0.000        0.000
         3          0    0    1              0.400        0.000        0.000
         4          0    0    1              0.600        0.000        0.000
         5          0    0    1              0.800        0.000        0.000
         6          0    0    1              1.000        0.000        0.000
         7          1    1    1              0.000        0.100        0.000
         8          0    0    1              0.200        0.100        0.000
         9          0    0    1              0.400        0.100        0.000
        10          0    0    1              0.600        0.100        0.000
        11          0    0    1              0.800        0.100        0.000
        12          0    0    1              1.000        0.100        0.000
        13          1    1    1              0.000        0.200        0.000
        14          0    0    1              0.200        0.200        0.000
        15          0    0    1              0.400        0.200        0.000
        16          0    0    1              0.600        0.200        0.000
        17          0    0    1              0.800        0.200        0.000
        18          0    0    1              1.000        0.200        0.000


 EQUATION NUMBERS

        NODE         DEGREES OF FREEDOM
       NUMBER
          N                  X         Y         Z
          1                  0         0         0
          2                  1         2         0
          3                  3         4         0
          4                  5         6         0
          5                  7         8         0
          6                  9        10         0
          7                  0         0         0
          8                 11        12         0
          9                 13        14         0
         10                 15        16         0
         11                 17        18         0
         12                 19        20         0
         13                  0         0         0
         14                 21        22         0
         15                 23        24         0
         16                 25        26         0
         17                 27        28         0
         18                 29        30         0


 L O A D   C A S E   D A T A

     LOAD CASE NUMBER . . . . . . . =          1
     NUMBER OF CONCENTRATED LOADS . =          1


        NODE       DIRECTION      LOAD
       NUMBER                   MAGNITUDE
        12            2       -5.00000e+04

 E L E M E N T   G R O U P   D A T A


 E L E M E N T   D E F I N I T I O N

 ELEMENT TYPE  . . . . . . . . . . . . .( NPAR(1) ) . . =          2
     EQ.1, TRUSS ELEMENTS
     EQ.2, ELEMENTS CURRENTLY
     EQ.3, NOT AVAILABLE
 NUMBER OF ELEMENTS. . . . . . . . . . .( NPAR(2) ) . . =         10

 M A T E R I A L   D E F I N I T I O N

 NUMBER OF DIFFERENT SETS OF MATERIAL
 AND CROSS-SECTIONAL  CONSTANTS  . . . .( NPAR(3) ) . . =          1
  SET       YOUNG'S     CROSS-SECTIONAL
 NUMBER     MODULUS          Poisson
               E             nu
    1     3.00000e+11    3.000000e-01


 E L E M E N T   I N F O R M A T I O N

      ELEMENT          NODE          NODE          NODE          NODE       MATERIAL
      NUMBER-N           I1             I2             I3             I4       SET NUMBER
         1               1             2             8            7           1
         2               2             3             9            8           1
         3               3             4            10            9           1
         4               4             5            11           10           1
         5               5             6            12           11           1
         6               7             8            14           13           1
         7               8             9            15           14           1
         8               9            10            16           15           1
         9              10            11            17           16           1
        10              11            12            18           17           1


  TOTAL SYSTEM DATA

     NUMBER OF EQUATIONS . . . . . . . . . . . . . .(NEQ) =         30
     NUMBER OF MATRIX ELEMENTS . . . . . . . . . . .(NWK) =        293
     MAXIMUM HALF BANDWIDTH  . . . . . . . . . . . .(MK ) =         14
     MEAN HALF BANDWIDTH . . . . . . . . . . . . . .(MM ) =         10


 LOAD CASE   1

 D I S P L A C E M E N T S

       NODE           X-DISPLACEMENT    Y-DISPLACEMENT    Z-DISPLACEMENT
          1              0.000000e+00      0.000000e+00      0.000000e+00
          2             -3.125200e-06     -3.696334e-06      0.000000e+00
          3             -5.624801e-06     -1.281458e-05      0.000000e+00
          4             -7.394215e-06     -2.624785e-05      0.000000e+00
          5             -8.462323e-06     -4.251595e-05      0.000000e+00
          6             -8.804673e-06     -6.016053e-05      0.000000e+00
          7              0.000000e+00      0.000000e+00      0.000000e+00
          8              1.694066e-21     -3.420733e-06      0.000000e+00
          9              3.044025e-21     -1.266916e-05      0.000000e+00
         10              5.452775e-21     -2.614058e-05      0.000000e+00
         11              1.016440e-20     -4.245223e-05      0.000000e+00
         12              1.185846e-20     -6.020831e-05      0.000000e+00
         13              0.000000e+00      0.000000e+00      0.000000e+00
         14              3.125200e-06     -3.696334e-06      0.000000e+00
         15              5.624801e-06     -1.281458e-05      0.000000e+00
         16              7.394215e-06     -2.624785e-05      0.000000e+00
         17              8.462323e-06     -4.251595e-05      0.000000e+00
         18              8.804673e-06     -6.016053e-05      0.000000e+00


  S T R E S S  C A L C U L A T I O N S  F O R  E L E M E N T  G R O U P    1

       ELEMENT             SIGMAxx         SIGMAyy         SIGMAxy
       NUMBER
          1     -2.439428e+06     -3.184265e+05    -2.500000e+05
          2     -1.851912e+06      7.596137e+04    -2.500000e+05
          3     -1.333353e+06     -2.097539e+04    -2.500000e+05
          4     -7.957532e+05      1.775845e+04    -2.500000e+05
          5     -2.742743e+05     -5.837087e+04    -2.500000e+05
          6      2.439428e+06      3.184265e+05    -2.500000e+05
          7      1.851912e+06     -7.596137e+04    -2.500000e+05
          8      1.333353e+06      2.097539e+04    -2.500000e+05
          9      7.957532e+05     -1.775845e+04    -2.500000e+05
         10      2.742743e+05      5.837087e+04    -2.500000e+05


 S O L U T I O N   T I M E   L O G   I N   S E C

     TIME FOR INPUT PHASE  . . . . . . . . . . . . . . =         0.01
     TIME FOR CALCULATION OF STIFFNESS MATRIX  . . . . =         0.01
     TIME FOR FACTORIZATION OF STIFFNESS MATRIX  . . . =         0.00
     TIME FOR LOAD CASE SOLUTIONS  . . . . . . . . . . =         0.00

      T O T A L   S O L U T I O N   T I M E  . . . . . =         0.03
